11 200
0 0 70 70 0 0 1351 0 0 0
1 32 129 9 10 84 147 90 0 94
2 171 135 6 30 153 210 90 0 189
3 65 135 3 20 250 300 90 0 174
4 86 135 0 10 331 405 90 0 51
5 115 136 0 30 426 491 90 0 136
6 94 137 3 -10 522 581 90 32 0
7 189 131 11 -30 895 960 90 171 0
8 174 139 10 -20 723 756 90 65 0
9 51 137 6 -10 611 678 90 86 0
10 136 133 12 -30 797 874 90 115 0

